20
1 0 8
3 0 1
3 2 7
4 3 5
5 2 4
5 3 8
6 1 6
6 2 8
6 4 3
8 0 9
8 1 10
8 2 9
8 6 10
8 7 9
9 1 5
9 4 3
9 5 2
9 6 3
10 3 6
11 1 3
11 3 9
11 5 2
11 6 4
11 8 1
12 11 2
13 0 4
13 3 2
13 8 7
13 9 6
13 10 7
14 0 6
14 2 2
14 3 2
14 4 1
14 6 5
14 10 4
15 2 6
15 4 3
15 6 2
15 12 3
15 13 4
15 14 7
16 0 4
16 2 8
16 5 10
16 14 3
17 2 2
17 4 9
17 8 7
17 10 1
17 14 2
17 15 6
18 5 6
18 8 8
18 9 9
18 10 5
18 11 6
18 14 2
19 0 6
19 1 4
19 5 1
19 13 10
